c Generated map
c Size: 12 * 12, weights in range: 1 to 10, walls: False, with ratio 0.0
c dim 4 of 5
c
p sp 144 264
c graph contains 144 nodes and 264 arcs
c
a 1 13 9
a 13 1 9
a 1 2 3
a 2 1 3
a 2 14 5
a 14 2 5
a 2 3 4
a 3 2 4
a 3 15 9
a 15 3 9
a 3 4 4
a 4 3 4
a 4 16 5
a 16 4 5
a 4 5 5
a 5 4 5
a 5 17 2
a 17 5 2
a 5 6 1
a 6 5 1
a 6 18 2
a 18 6 2
a 6 7 6
a 7 6 6
a 7 19 5
a 19 7 5
a 7 8 9
a 8 7 9
a 8 20 7
a 20 8 7
a 8 9 2
a 9 8 2
a 9 21 9
a 21 9 9
a 9 10 4
a 10 9 4
a 10 22 5
a 22 10 5
a 10 11 9
a 11 10 9
a 11 23 2
a 23 11 2
a 11 12 10
a 12 11 10
a 12 24 9
a 24 12 9
a 13 25 3
a 25 13 3
a 13 14 6
a 14 13 6
a 14 26 10
a 26 14 10
a 14 15 9
a 15 14 9
a 15 27 9
a 27 15 9
a 15 16 9
a 16 15 9
a 16 28 3
a 28 16 3
a 16 17 10
a 17 16 10
a 17 29 3
a 29 17 3
a 17 18 4
a 18 17 4
a 18 30 7
a 30 18 7
a 18 19 5
a 19 18 5
a 19 31 7
a 31 19 7
a 19 20 6
a 20 19 6
a 20 32 2
a 32 20 2
a 20 21 6
a 21 20 6
a 21 33 7
a 33 21 7
a 21 22 4
a 22 21 4
a 22 34 4
a 34 22 4
a 22 23 7
a 23 22 7
a 23 35 2
a 35 23 2
a 23 24 8
a 24 23 8
a 24 36 9
a 36 24 9
a 25 37 6
a 37 25 6
a 25 26 2
a 26 25 2
a 26 38 3
a 38 26 3
a 26 27 8
a 27 26 8
a 27 39 5
a 39 27 5
a 27 28 2
a 28 27 2
a 28 40 8
a 40 28 8
a 28 29 3
a 29 28 3
a 29 41 5
a 41 29 5
a 29 30 1
a 30 29 1
a 30 42 3
a 42 30 3
a 30 31 2
a 31 30 2
a 31 43 4
a 43 31 4
a 31 32 10
a 32 31 10
a 32 44 3
a 44 32 3
a 32 33 4
a 33 32 4
a 33 45 7
a 45 33 7
a 33 34 1
a 34 33 1
a 34 46 9
a 46 34 9
a 34 35 8
a 35 34 8
a 35 47 4
a 47 35 4
a 35 36 8
a 36 35 8
a 36 48 10
a 48 36 10
a 37 49 10
a 49 37 10
a 37 38 1
a 38 37 1
a 38 50 8
a 50 38 8
a 38 39 10
a 39 38 10
a 39 51 8
a 51 39 8
a 39 40 10
a 40 39 10
a 40 52 10
a 52 40 10
a 40 41 8
a 41 40 8
a 41 53 8
a 53 41 8
a 41 42 7
a 42 41 7
a 42 54 6
a 54 42 6
a 42 43 3
a 43 42 3
a 43 55 6
a 55 43 6
a 43 44 7
a 44 43 7
a 44 56 8
a 56 44 8
a 44 45 5
a 45 44 5
a 45 57 5
a 57 45 5
a 45 46 5
a 46 45 5
a 46 58 10
a 58 46 10
a 46 47 3
a 47 46 3
a 47 59 4
a 59 47 4
a 47 48 5
a 48 47 5
a 48 60 5
a 60 48 5
a 49 61 3
a 61 49 3
a 49 50 7
a 50 49 7
a 50 62 8
a 62 50 8
a 50 51 5
a 51 50 5
a 51 63 5
a 63 51 5
a 51 52 5
a 52 51 5
a 52 64 5
a 64 52 5
a 52 53 1
a 53 52 1
a 53 65 7
a 65 53 7
a 53 54 2
a 54 53 2
a 54 66 5
a 66 54 5
a 54 55 6
a 55 54 6
a 55 67 6
a 67 55 6
a 55 56 6
a 56 55 6
a 56 68 8
a 68 56 8
a 56 57 2
a 57 56 2
a 57 69 2
a 69 57 2
a 57 58 4
a 58 57 4
a 58 70 3
a 70 58 3
a 58 59 7
a 59 58 7
a 59 71 2
a 71 59 2
a 59 60 8
a 60 59 8
a 60 72 10
a 72 60 10
a 61 73 9
a 73 61 9
a 61 62 7
a 62 61 7
a 62 74 10
a 74 62 10
a 62 63 6
a 63 62 6
a 63 75 8
a 75 63 8
a 63 64 4
a 64 63 4
a 64 76 1
a 76 64 1
a 64 65 5
a 65 64 5
a 65 77 8
a 77 65 8
a 65 66 10
a 66 65 10
a 66 78 9
a 78 66 9
a 66 67 10
a 67 66 10
a 67 79 6
a 79 67 6
a 67 68 3
a 68 67 3
a 68 80 3
a 80 68 3
a 68 69 8
a 69 68 8
a 69 81 4
a 81 69 4
a 69 70 7
a 70 69 7
a 70 82 1
a 82 70 1
a 70 71 9
a 71 70 9
a 71 83 2
a 83 71 2
a 71 72 10
a 72 71 10
a 72 84 1
a 84 72 1
a 73 85 9
a 85 73 9
a 73 74 9
a 74 73 9
a 74 86 3
a 86 74 3
a 74 75 6
a 75 74 6
a 75 87 5
a 87 75 5
a 75 76 4
a 76 75 4
a 76 88 8
a 88 76 8
a 76 77 3
a 77 76 3
a 77 89 5
a 89 77 5
a 77 78 5
a 78 77 5
a 78 90 8
a 90 78 8
a 78 79 9
a 79 78 9
a 79 91 7
a 91 79 7
a 79 80 4
a 80 79 4
a 80 92 10
a 92 80 10
a 80 81 4
a 81 80 4
a 81 93 6
a 93 81 6
a 81 82 1
a 82 81 1
a 82 94 6
a 94 82 6
a 82 83 9
a 83 82 9
a 83 95 3
a 95 83 3
a 83 84 3
a 84 83 3
a 84 96 2
a 96 84 2
a 85 97 6
a 97 85 6
a 85 86 5
a 86 85 5
a 86 98 3
a 98 86 3
a 86 87 4
a 87 86 4
a 87 99 6
a 99 87 6
a 87 88 3
a 88 87 3
a 88 100 1
a 100 88 1
a 88 89 10
a 89 88 10
a 89 101 6
a 101 89 6
a 89 90 9
a 90 89 9
a 90 102 3
a 102 90 3
a 90 91 9
a 91 90 9
a 91 103 8
a 103 91 8
a 91 92 2
a 92 91 2
a 92 104 2
a 104 92 2
a 92 93 6
a 93 92 6
a 93 105 7
a 105 93 7
a 93 94 4
a 94 93 4
a 94 106 6
a 106 94 6
a 94 95 9
a 95 94 9
a 95 107 6
a 107 95 6
a 95 96 6
a 96 95 6
a 96 108 10
a 108 96 10
a 97 109 7
a 109 97 7
a 97 98 2
a 98 97 2
a 98 110 9
a 110 98 9
a 98 99 1
a 99 98 1
a 99 111 9
a 111 99 9
a 99 100 7
a 100 99 7
a 100 112 9
a 112 100 9
a 100 101 5
a 101 100 5
a 101 113 10
a 113 101 10
a 101 102 6
a 102 101 6
a 102 114 10
a 114 102 10
a 102 103 4
a 103 102 4
a 103 115 2
a 115 103 2
a 103 104 1
a 104 103 1
a 104 116 9
a 116 104 9
a 104 105 7
a 105 104 7
a 105 117 2
a 117 105 2
a 105 106 9
a 106 105 9
a 106 118 9
a 118 106 9
a 106 107 5
a 107 106 5
a 107 119 6
a 119 107 6
a 107 108 9
a 108 107 9
a 108 120 7
a 120 108 7
a 109 121 6
a 121 109 6
a 109 110 9
a 110 109 9
a 110 122 1
a 122 110 1
a 110 111 9
a 111 110 9
a 111 123 8
a 123 111 8
a 111 112 6
a 112 111 6
a 112 124 4
a 124 112 4
a 112 113 9
a 113 112 9
a 113 125 9
a 125 113 9
a 113 114 2
a 114 113 2
a 114 126 1
a 126 114 1
a 114 115 2
a 115 114 2
a 115 127 2
a 127 115 2
a 115 116 10
a 116 115 10
a 116 128 4
a 128 116 4
a 116 117 10
a 117 116 10
a 117 129 9
a 129 117 9
a 117 118 10
a 118 117 10
a 118 130 2
a 130 118 2
a 118 119 10
a 119 118 10
a 119 131 10
a 131 119 10
a 119 120 4
a 120 119 4
a 120 132 6
a 132 120 6
a 121 133 3
a 133 121 3
a 121 122 8
a 122 121 8
a 122 134 3
a 134 122 3
a 122 123 8
a 123 122 8
a 123 135 6
a 135 123 6
a 123 124 10
a 124 123 10
a 124 136 7
a 136 124 7
a 124 125 8
a 125 124 8
a 125 137 10
a 137 125 10
a 125 126 3
a 126 125 3
a 126 138 4
a 138 126 4
a 126 127 1
a 127 126 1
a 127 139 2
a 139 127 2
a 127 128 9
a 128 127 9
a 128 140 7
a 140 128 7
a 128 129 8
a 129 128 8
a 129 141 5
a 141 129 5
a 129 130 6
a 130 129 6
a 130 142 6
a 142 130 6
a 130 131 8
a 131 130 8
a 131 143 6
a 143 131 6
a 131 132 7
a 132 131 7
a 132 144 2
a 144 132 2
a 133 134 10
a 134 133 10
a 134 135 9
a 135 134 9
a 135 136 5
a 136 135 5
a 136 137 2
a 137 136 2
a 137 138 9
a 138 137 9
a 138 139 5
a 139 138 5
a 139 140 8
a 140 139 8
a 140 141 7
a 141 140 7
a 141 142 7
a 142 141 7
a 142 143 4
a 143 142 4
a 143 144 5
a 144 143 5
